p cnf 961 2466
51 -694 -695 0
-51 694 0
-51 695 0
52 -51 -696 0
-52 51 0
-52 696 0
53 -697 -4 0
-53 697 0
-53 4 0
54 -53 -6 0
-54 53 0
-54 6 0
55 -698 -699 0
-55 698 0
-55 699 0
56 -8 -700 0
-56 8 0
-56 700 0
57 -56 -9 0
-57 56 0
-57 9 0
58 -701 -55 0
-58 701 0
-58 55 0
59 -11 -702 0
-59 11 0
-59 702 0
60 -59 -12 0
-60 59 0
-60 12 0
61 -703 -58 0
-61 703 0
-61 58 0
62 -14 -704 0
-62 14 0
-62 704 0
63 -62 -705 0
-63 62 0
-63 705 0
64 -706 -61 0
-64 706 0
-64 61 0
65 -17 -16 0
-65 17 0
-65 16 0
66 -65 -707 0
-66 65 0
-66 707 0
67 -708 -64 0
-67 708 0
-67 64 0
68 -19 -3 0
-68 19 0
-68 3 0
69 -68 -697 0
-69 68 0
-69 697 0
70 -709 -67 0
-70 709 0
-70 67 0
71 -710 -711 0
-71 710 0
-71 711 0
72 -71 -21 0
-72 71 0
-72 21 0
73 -712 -70 0
-73 712 0
-73 70 0
74 -713 -2 0
-74 713 0
-74 2 0
75 -74 -23 0
-75 74 0
-75 23 0
76 -714 -73 0
-76 714 0
-76 73 0
77 -715 -716 0
-77 715 0
-77 716 0
78 -77 -717 0
-78 77 0
-78 717 0
79 -718 -76 0
-79 718 0
-79 76 0
80 -10 -7 0
-80 10 0
-80 7 0
81 -80 -27 0
-81 80 0
-81 27 0
82 -719 -79 0
-82 719 0
-82 79 0
83 -720 -700 0
-83 720 0
-83 700 0
84 -83 -721 0
-84 83 0
-84 721 0
85 -722 -82 0
-85 722 0
-85 82 0
86 -30 -29 0
-86 30 0
-86 29 0
87 -86 -723 0
-87 86 0
-87 723 0
88 -724 -85 0
-88 724 0
-88 85 0
89 -19 -6 0
-89 19 0
-89 6 0
90 -89 -721 0
-90 89 0
-90 721 0
91 -725 -88 0
-91 725 0
-91 88 0
92 -726 -31 0
-92 726 0
-92 31 0
93 -92 -721 0
-93 92 0
-93 721 0
94 -727 -91 0
-94 727 0
-94 91 0
95 -27 -716 0
-95 27 0
-95 716 0
96 -95 -28 0
-96 95 0
-96 28 0
97 -728 -94 0
-97 728 0
-97 94 0
98 -716 -1 0
-98 716 0
-98 1 0
99 -98 -11 0
-99 98 0
-99 11 0
100 -729 -97 0
-100 729 0
-100 97 0
101 -726 -730 0
-101 726 0
-101 730 0
102 -101 -33 0
-102 101 0
-102 33 0
103 -731 -100 0
-103 731 0
-103 100 0
104 -34 -7 0
-104 34 0
-104 7 0
105 -104 -35 0
-105 104 0
-105 35 0
106 -732 -103 0
-106 732 0
-106 103 0
107 -14 -10 0
-107 14 0
-107 10 0
108 -107 -22 0
-108 107 0
-108 22 0
109 -733 -106 0
-109 733 0
-109 106 0
110 -10 -734 0
-110 10 0
-110 734 0
111 -110 -735 0
-111 110 0
-111 735 0
112 -736 -109 0
-112 736 0
-112 109 0
113 -737 -738 0
-113 737 0
-113 738 0
114 -113 -720 0
-114 113 0
-114 720 0
115 -739 -112 0
-115 739 0
-115 112 0
116 -29 -4 0
-116 29 0
-116 4 0
117 -116 -740 0
-117 116 0
-117 740 0
118 -741 -115 0
-118 741 0
-118 115 0
119 -38 -4 0
-119 38 0
-119 4 0
120 -119 -23 0
-120 119 0
-120 23 0
121 -742 -118 0
-121 742 0
-121 118 0
122 -68 -702 0
-122 68 0
-122 702 0
123 -743 -121 0
-123 743 0
-123 121 0
124 -744 -4 0
-124 744 0
-124 4 0
125 -124 -11 0
-125 124 0
-125 11 0
126 -745 -123 0
-126 745 0
-126 123 0
127 -746 -695 0
-127 746 0
-127 695 0
128 -127 -39 0
-128 127 0
-128 39 0
129 -747 -126 0
-129 747 0
-129 126 0
130 -40 -738 0
-130 40 0
-130 738 0
131 -130 -730 0
-131 130 0
-131 730 0
132 -748 -129 0
-132 748 0
-132 129 0
133 -29 -704 0
-133 29 0
-133 704 0
134 -133 -749 0
-134 133 0
-134 749 0
135 -750 -132 0
-135 750 0
-135 132 0
136 -41 -24 0
-136 41 0
-136 24 0
137 -136 -737 0
-137 136 0
-137 737 0
138 -751 -135 0
-138 751 0
-138 135 0
139 -749 -25 0
-139 749 0
-139 25 0
140 -139 -18 0
-140 139 0
-140 18 0
141 -752 -138 0
-141 752 0
-141 138 0
142 -753 -754 0
-142 753 0
-142 754 0
143 -142 -755 0
-143 142 0
-143 755 0
144 -756 -141 0
-144 756 0
-144 141 0
145 -753 -697 0
-145 753 0
-145 697 0
146 -145 -707 0
-146 145 0
-146 707 0
147 -757 -144 0
-147 757 0
-147 144 0
148 -14 -2 0
-148 14 0
-148 2 0
149 -148 -21 0
-149 148 0
-149 21 0
150 -758 -147 0
-150 758 0
-150 147 0
151 -40 -31 0
-151 40 0
-151 31 0
152 -151 -18 0
-152 151 0
-152 18 0
153 -759 -150 0
-153 759 0
-153 150 0
154 -14 -697 0
-154 14 0
-154 697 0
155 -154 -15 0
-155 154 0
-155 15 0
156 -760 -153 0
-156 760 0
-156 153 0
157 -40 -761 0
-157 40 0
-157 761 0
158 -157 -717 0
-158 157 0
-158 717 0
159 -762 -156 0
-159 762 0
-159 156 0
160 -763 -24 0
-160 763 0
-160 24 0
161 -160 -2 0
-161 160 0
-161 2 0
162 -764 -159 0
-162 764 0
-162 159 0
163 -765 -1 0
-163 765 0
-163 1 0
164 -163 -726 0
-164 163 0
-164 726 0
165 -766 -162 0
-165 766 0
-165 162 0
166 -43 -38 0
-166 43 0
-166 38 0
167 -166 -15 0
-167 166 0
-167 15 0
168 -767 -165 0
-168 767 0
-168 165 0
169 -744 -2 0
-169 744 0
-169 2 0
170 -169 -768 0
-170 169 0
-170 768 0
171 -769 -168 0
-171 769 0
-171 168 0
172 -765 -20 0
-172 765 0
-172 20 0
173 -172 -22 0
-173 172 0
-173 22 0
174 -770 -171 0
-174 770 0
-174 171 0
175 -761 -1 0
-175 761 0
-175 1 0
176 -175 -707 0
-176 175 0
-176 707 0
177 -771 -174 0
-177 771 0
-177 174 0
178 -753 -4 0
-178 753 0
-178 4 0
179 -178 -38 0
-179 178 0
-179 38 0
180 -772 -177 0
-180 772 0
-180 177 0
181 -21 -730 0
-181 21 0
-181 730 0
182 -181 -755 0
-182 181 0
-182 755 0
183 -773 -180 0
-183 773 0
-183 180 0
184 -774 -761 0
-184 774 0
-184 761 0
185 -184 -734 0
-185 184 0
-185 734 0
186 -775 -183 0
-186 775 0
-186 183 0
187 -36 -735 0
-187 36 0
-187 735 0
188 -187 -27 0
-188 187 0
-188 27 0
189 -776 -186 0
-189 776 0
-189 186 0
190 -740 -15 0
-190 740 0
-190 15 0
191 -190 -27 0
-191 190 0
-191 27 0
192 -777 -189 0
-192 777 0
-192 189 0
193 -45 -36 0
-193 45 0
-193 36 0
194 -193 -734 0
-194 193 0
-194 734 0
195 -778 -192 0
-195 778 0
-195 192 0
196 -726 -13 0
-196 726 0
-196 13 0
197 -196 -27 0
-197 196 0
-197 27 0
198 -779 -195 0
-198 779 0
-198 195 0
199 -735 -9 0
-199 735 0
-199 9 0
200 -199 -28 0
-200 199 0
-200 28 0
201 -780 -198 0
-201 780 0
-201 198 0
202 -781 -5 0
-202 781 0
-202 5 0
203 -202 -37 0
-203 202 0
-203 37 0
204 -782 -201 0
-204 782 0
-204 201 0
205 -711 -4 0
-205 711 0
-205 4 0
206 -205 -21 0
-206 205 0
-206 21 0
207 -783 -204 0
-207 783 0
-207 204 0
208 -784 -695 0
-208 784 0
-208 695 0
209 -208 -12 0
-209 208 0
-209 12 0
210 -785 -207 0
-210 785 0
-210 207 0
211 -735 -694 0
-211 735 0
-211 694 0
212 -211 -740 0
-212 211 0
-212 740 0
213 -786 -210 0
-213 786 0
-213 210 0
214 -29 -8 0
-214 29 0
-214 8 0
215 -214 -25 0
-215 214 0
-215 25 0
216 -787 -213 0
-216 787 0
-216 213 0
217 -753 -29 0
-217 753 0
-217 29 0
218 -217 -737 0
-218 217 0
-218 737 0
219 -788 -216 0
-219 788 0
-219 216 0
220 -43 -30 0
-220 43 0
-220 30 0
221 -220 -16 0
-221 220 0
-221 16 0
222 -789 -219 0
-222 789 0
-222 219 0
223 -790 -774 0
-223 790 0
-223 774 0
224 -223 -715 0
-224 223 0
-224 715 0
225 -791 -222 0
-225 791 0
-225 222 0
226 -790 -40 0
-226 790 0
-226 40 0
227 -226 -713 0
-227 226 0
-227 713 0
228 -792 -225 0
-228 792 0
-228 225 0
229 -730 -704 0
-229 730 0
-229 704 0
230 -229 -23 0
-230 229 0
-230 23 0
231 -793 -228 0
-231 793 0
-231 228 0
232 -715 -16 0
-232 715 0
-232 16 0
233 -232 -720 0
-233 232 0
-233 720 0
234 -794 -231 0
-234 794 0
-234 231 0
235 -795 -30 0
-235 795 0
-235 30 0
236 -235 -21 0
-236 235 0
-236 21 0
237 -796 -234 0
-237 796 0
-237 234 0
238 -48 -761 0
-238 48 0
-238 761 0
239 -238 -737 0
-239 238 0
-239 737 0
240 -797 -237 0
-240 797 0
-240 237 0
241 -781 -768 0
-241 781 0
-241 768 0
242 -241 -15 0
-242 241 0
-242 15 0
243 -798 -240 0
-243 798 0
-243 240 0
244 -19 -14 0
-244 19 0
-244 14 0
245 -244 -755 0
-245 244 0
-245 755 0
246 -799 -243 0
-246 799 0
-246 243 0
247 -24 -2 0
-247 24 0
-247 2 0
248 -247 -32 0
-248 247 0
-248 32 0
249 -800 -246 0
-249 800 0
-249 246 0
250 -801 -4 0
-250 801 0
-250 4 0
251 -250 -33 0
-251 250 0
-251 33 0
252 -802 -249 0
-252 802 0
-252 249 0
253 -710 -744 0
-253 710 0
-253 744 0
254 -253 -717 0
-254 253 0
-254 717 0
255 -803 -252 0
-255 803 0
-255 252 0
256 -50 -40 0
-256 50 0
-256 40 0
257 -256 -37 0
-257 256 0
-257 37 0
258 -804 -255 0
-258 804 0
-258 255 0
259 -795 -38 0
-259 795 0
-259 38 0
260 -259 -15 0
-260 259 0
-260 15 0
261 -805 -258 0
-261 805 0
-261 258 0
262 -39 -21 0
-262 39 0
-262 21 0
263 -262 -17 0
-263 262 0
-263 17 0
264 -806 -261 0
-264 806 0
-264 261 0
265 -705 -10 0
-265 705 0
-265 10 0
266 -265 -27 0
-266 265 0
-266 27 0
267 -807 -264 0
-267 807 0
-267 264 0
268 -43 -765 0
-268 43 0
-268 765 0
269 -268 -735 0
-269 268 0
-269 735 0
270 -808 -267 0
-270 808 0
-270 267 0
271 -781 -7 0
-271 781 0
-271 7 0
272 -271 -801 0
-272 271 0
-272 801 0
273 -809 -270 0
-273 809 0
-273 270 0
274 -31 -810 0
-274 31 0
-274 810 0
275 -274 -32 0
-275 274 0
-275 32 0
276 -811 -273 0
-276 811 0
-276 273 0
277 -781 -744 0
-277 781 0
-277 744 0
278 -277 -812 0
-278 277 0
-278 812 0
279 -813 -276 0
-279 813 0
-279 276 0
280 -31 -8 0
-280 31 0
-280 8 0
281 -280 -814 0
-281 280 0
-281 814 0
282 -815 -279 0
-282 815 0
-282 279 0
283 -22 -19 0
-283 22 0
-283 19 0
284 -283 -707 0
-284 283 0
-284 707 0
285 -816 -282 0
-285 816 0
-285 282 0
286 -817 -697 0
-286 817 0
-286 697 0
287 -286 -768 0
-287 286 0
-287 768 0
288 -818 -285 0
-288 818 0
-288 285 0
289 -819 -14 0
-289 819 0
-289 14 0
290 -289 -33 0
-290 289 0
-290 33 0
291 -820 -288 0
-291 820 0
-291 288 0
292 -148 -723 0
-292 148 0
-292 723 0
293 -821 -291 0
-293 821 0
-293 291 0
294 -7 -695 0
-294 7 0
-294 695 0
295 -294 -737 0
-295 294 0
-295 737 0
296 -822 -293 0
-296 822 0
-296 293 0
297 -31 -763 0
-297 31 0
-297 763 0
298 -297 -27 0
-298 297 0
-298 27 0
299 -823 -296 0
-299 823 0
-299 296 0
300 -50 -4 0
-300 50 0
-300 4 0
301 -300 -14 0
-301 300 0
-301 14 0
302 -824 -299 0
-302 824 0
-302 299 0
303 -738 -763 0
-303 738 0
-303 763 0
304 -303 -825 0
-304 303 0
-304 825 0
305 -826 -302 0
-305 826 0
-305 302 0
306 -35 -12 0
-306 35 0
-306 12 0
307 -306 -717 0
-307 306 0
-307 717 0
308 -827 -305 0
-308 827 0
-308 305 0
309 -46 -9 0
-309 46 0
-309 9 0
310 -309 -32 0
-310 309 0
-310 32 0
311 -828 -308 0
-311 828 0
-311 308 0
312 -812 -18 0
-312 812 0
-312 18 0
313 -312 -15 0
-313 312 0
-313 15 0
314 -829 -311 0
-314 829 0
-314 311 0
315 -730 -814 0
-315 730 0
-315 814 0
316 -315 -33 0
-316 315 0
-316 33 0
317 -830 -314 0
-317 830 0
-317 314 0
318 -45 -42 0
-318 45 0
-318 42 0
319 -318 -12 0
-319 318 0
-319 12 0
320 -831 -317 0
-320 831 0
-320 317 0
321 -832 -8 0
-321 832 0
-321 8 0
322 -321 -753 0
-322 321 0
-322 753 0
323 -833 -320 0
-323 833 0
-323 320 0
324 -781 -31 0
-324 781 0
-324 31 0
325 -324 -812 0
-325 324 0
-325 812 0
326 -834 -323 0
-326 834 0
-326 323 0
327 -726 -11 0
-327 726 0
-327 11 0
328 -327 -33 0
-328 327 0
-328 33 0
329 -835 -326 0
-329 835 0
-329 326 0
330 -21 -4 0
-330 21 0
-330 4 0
331 -330 -717 0
-331 330 0
-331 717 0
332 -836 -329 0
-332 836 0
-332 329 0
333 -781 -696 0
-333 781 0
-333 696 0
334 -333 -765 0
-334 333 0
-334 765 0
335 -837 -332 0
-335 837 0
-335 332 0
336 -49 -740 0
-336 49 0
-336 740 0
337 -336 -707 0
-337 336 0
-337 707 0
338 -838 -335 0
-338 838 0
-338 335 0
339 -47 -7 0
-339 47 0
-339 7 0
340 -339 -10 0
-340 339 0
-340 10 0
341 -839 -338 0
-341 839 0
-341 338 0
342 -749 -1 0
-342 749 0
-342 1 0
343 -342 -21 0
-343 342 0
-343 21 0
344 -840 -341 0
-344 840 0
-344 341 0
345 -30 -697 0
-345 30 0
-345 697 0
346 -345 -26 0
-346 345 0
-346 26 0
347 -841 -344 0
-347 841 0
-347 344 0
348 -50 -761 0
-348 50 0
-348 761 0
349 -348 -768 0
-349 348 0
-349 768 0
350 -842 -347 0
-350 842 0
-350 347 0
351 -16 -4 0
-351 16 0
-351 4 0
352 -351 -723 0
-352 351 0
-352 723 0
353 -843 -350 0
-353 843 0
-353 350 0
354 -832 -6 0
-354 832 0
-354 6 0
355 -354 -42 0
-355 354 0
-355 42 0
356 -844 -353 0
-356 844 0
-356 353 0
357 -49 -755 0
-357 49 0
-357 755 0
358 -357 -814 0
-358 357 0
-358 814 0
359 -845 -356 0
-359 845 0
-359 356 0
360 -8 -2 0
-360 8 0
-360 2 0
361 -360 -832 0
-361 360 0
-361 832 0
362 -846 -359 0
-362 846 0
-362 359 0
363 -817 -10 0
-363 817 0
-363 10 0
364 -363 -713 0
-364 363 0
-364 713 0
365 -847 -362 0
-365 847 0
-365 362 0
366 -848 -8 0
-366 848 0
-366 8 0
367 -366 -723 0
-367 366 0
-367 723 0
368 -849 -365 0
-368 849 0
-368 365 0
369 -24 -7 0
-369 24 0
-369 7 0
370 -369 -45 0
-370 369 0
-370 45 0
371 -850 -368 0
-371 850 0
-371 368 0
372 -726 -744 0
-372 726 0
-372 744 0
373 -372 -18 0
-373 372 0
-373 18 0
374 -851 -371 0
-374 851 0
-374 371 0
375 -781 -814 0
-375 781 0
-375 814 0
376 -375 -33 0
-376 375 0
-376 33 0
377 -852 -374 0
-377 852 0
-377 374 0
378 -50 -49 0
-378 50 0
-378 49 0
379 -378 -17 0
-379 378 0
-379 17 0
380 -853 -377 0
-380 853 0
-380 377 0
381 -41 -810 0
-381 41 0
-381 810 0
382 -381 -744 0
-382 381 0
-382 744 0
383 -854 -380 0
-383 854 0
-383 380 0
384 -737 -29 0
-384 737 0
-384 29 0
385 -384 -723 0
-385 384 0
-385 723 0
386 -855 -383 0
-386 855 0
-386 383 0
387 -220 -734 0
-387 220 0
-387 734 0
388 -856 -386 0
-388 856 0
-388 386 0
389 -46 -8 0
-389 46 0
-389 8 0
390 -389 -726 0
-390 389 0
-390 726 0
391 -857 -388 0
-391 857 0
-391 388 0
392 -29 -3 0
-392 29 0
-392 3 0
393 -392 -746 0
-393 392 0
-393 746 0
394 -858 -391 0
-394 858 0
-394 391 0
395 -715 -2 0
-395 715 0
-395 2 0
396 -395 -740 0
-396 395 0
-396 740 0
397 -859 -394 0
-397 859 0
-397 394 0
398 -48 -754 0
-398 48 0
-398 754 0
399 -398 -768 0
-399 398 0
-399 768 0
400 -860 -397 0
-400 860 0
-400 397 0
401 -24 -13 0
-401 24 0
-401 13 0
402 -401 -711 0
-402 401 0
-402 711 0
403 -861 -400 0
-403 861 0
-403 400 0
404 -795 -23 0
-404 795 0
-404 23 0
405 -404 -721 0
-405 404 0
-405 721 0
406 -862 -403 0
-406 862 0
-406 403 0
407 -43 -694 0
-407 43 0
-407 694 0
408 -407 -696 0
-408 407 0
-408 696 0
409 -863 -406 0
-409 863 0
-409 406 0
410 -795 -4 0
-410 795 0
-410 4 0
411 -410 -715 0
-411 410 0
-411 715 0
412 -864 -409 0
-412 864 0
-412 409 0
413 -774 -5 0
-413 774 0
-413 5 0
414 -413 -33 0
-414 413 0
-414 33 0
415 -865 -412 0
-415 865 0
-415 412 0
416 -817 -716 0
-416 817 0
-416 716 0
417 -416 -819 0
-417 416 0
-417 819 0
418 -866 -415 0
-418 866 0
-418 415 0
419 -738 -6 0
-419 738 0
-419 6 0
420 -419 -22 0
-420 419 0
-420 22 0
421 -867 -418 0
-421 867 0
-421 418 0
422 -48 -868 0
-422 48 0
-422 868 0
423 -422 -37 0
-423 422 0
-423 37 0
424 -869 -421 0
-424 869 0
-424 421 0
425 -9 -7 0
-425 9 0
-425 7 0
426 -425 -21 0
-426 425 0
-426 21 0
427 -870 -424 0
-427 870 0
-427 424 0
428 -717 -734 0
-428 717 0
-428 734 0
429 -428 -37 0
-429 428 0
-429 37 0
430 -871 -427 0
-430 871 0
-430 427 0
431 -309 -10 0
-431 309 0
-431 10 0
432 -872 -430 0
-432 872 0
-432 430 0
433 -30 -716 0
-433 30 0
-433 716 0
434 -433 -711 0
-434 433 0
-434 711 0
435 -873 -432 0
-435 873 0
-435 432 0
436 -801 -43 0
-436 801 0
-436 43 0
437 -436 -22 0
-437 436 0
-437 22 0
438 -874 -435 0
-438 874 0
-438 435 0
439 -832 -710 0
-439 832 0
-439 710 0
440 -439 -713 0
-440 439 0
-440 713 0
441 -875 -438 0
-441 875 0
-441 438 0
442 -32 -746 0
-442 32 0
-442 746 0
443 -442 -740 0
-443 442 0
-443 740 0
444 -876 -441 0
-444 876 0
-444 441 0
445 -781 -24 0
-445 781 0
-445 24 0
446 -445 -17 0
-446 445 0
-446 17 0
447 -877 -444 0
-447 877 0
-447 444 0
448 -795 -13 0
-448 795 0
-448 13 0
449 -448 -707 0
-449 448 0
-449 707 0
450 -878 -447 0
-450 878 0
-450 447 0
451 -41 -868 0
-451 41 0
-451 868 0
452 -451 -28 0
-452 451 0
-452 28 0
453 -879 -450 0
-453 879 0
-453 450 0
454 -29 -754 0
-454 29 0
-454 754 0
455 -454 -35 0
-455 454 0
-455 35 0
456 -880 -453 0
-456 880 0
-456 453 0
457 -817 -1 0
-457 817 0
-457 1 0
458 -457 -710 0
-458 457 0
-458 710 0
459 -881 -456 0
-459 881 0
-459 456 0
460 -749 -716 0
-460 749 0
-460 716 0
461 -460 -12 0
-461 460 0
-461 12 0
462 -882 -459 0
-462 882 0
-462 459 0
463 -765 -8 0
-463 765 0
-463 8 0
464 -463 -32 0
-464 463 0
-464 32 0
465 -883 -462 0
-465 883 0
-465 462 0
466 -30 -13 0
-466 30 0
-466 13 0
467 -466 -711 0
-467 466 0
-467 711 0
468 -884 -465 0
-468 884 0
-468 465 0
469 -45 -35 0
-469 45 0
-469 35 0
470 -469 -710 0
-470 469 0
-470 710 0
471 -885 -468 0
-471 885 0
-471 468 0
472 -755 -814 0
-472 755 0
-472 814 0
473 -472 -737 0
-473 472 0
-473 737 0
474 -886 -471 0
-474 886 0
-474 471 0
475 -35 -7 0
-475 35 0
-475 7 0
476 -475 -26 0
-476 475 0
-476 26 0
477 -887 -474 0
-477 887 0
-477 474 0
478 -817 -810 0
-478 817 0
-478 810 0
479 -478 -735 0
-479 478 0
-479 735 0
480 -888 -477 0
-480 888 0
-480 477 0
481 -34 -715 0
-481 34 0
-481 715 0
482 -481 -740 0
-482 481 0
-482 740 0
483 -889 -480 0
-483 889 0
-483 480 0
484 -50 -24 0
-484 50 0
-484 24 0
485 -484 -720 0
-485 484 0
-485 720 0
486 -890 -483 0
-486 890 0
-486 483 0
487 -781 -34 0
-487 781 0
-487 34 0
488 -487 -737 0
-488 487 0
-488 737 0
489 -891 -486 0
-489 891 0
-489 486 0
490 -29 -730 0
-490 29 0
-490 730 0
491 -490 -20 0
-491 490 0
-491 20 0
492 -892 -489 0
-492 892 0
-492 489 0
493 -814 -7 0
-493 814 0
-493 7 0
494 -493 -715 0
-494 493 0
-494 715 0
495 -893 -492 0
-495 893 0
-495 492 0
496 -810 -1 0
-496 810 0
-496 1 0
497 -496 -721 0
-497 496 0
-497 721 0
498 -894 -495 0
-498 894 0
-498 495 0
499 -696 -694 0
-499 696 0
-499 694 0
500 -499 -26 0
-500 499 0
-500 26 0
501 -895 -498 0
-501 895 0
-501 498 0
502 -37 -694 0
-502 37 0
-502 694 0
503 -502 -28 0
-503 502 0
-503 28 0
504 -896 -501 0
-504 896 0
-504 501 0
505 -801 -795 0
-505 801 0
-505 795 0
506 -505 -825 0
-506 505 0
-506 825 0
507 -897 -504 0
-507 897 0
-507 504 0
508 -697 -3 0
-508 697 0
-508 3 0
509 -508 -707 0
-509 508 0
-509 707 0
510 -898 -507 0
-510 898 0
-510 507 0
511 -44 -34 0
-511 44 0
-511 34 0
512 -511 -721 0
-512 511 0
-512 721 0
513 -899 -510 0
-513 899 0
-513 510 0
514 -763 -7 0
-514 763 0
-514 7 0
515 -514 -704 0
-515 514 0
-515 704 0
516 -900 -513 0
-516 900 0
-516 513 0
517 -21 -734 0
-517 21 0
-517 734 0
518 -517 -737 0
-518 517 0
-518 737 0
519 -901 -516 0
-519 901 0
-519 516 0
520 -817 -2 0
-520 817 0
-520 2 0
521 -520 -715 0
-521 520 0
-521 715 0
522 -902 -519 0
-522 902 0
-522 519 0
523 -817 -32 0
-523 817 0
-523 32 0
524 -523 -707 0
-524 523 0
-524 707 0
525 -903 -522 0
-525 903 0
-525 522 0
526 -68 -15 0
-526 68 0
-526 15 0
527 -904 -525 0
-527 904 0
-527 525 0
528 -713 -707 0
-528 713 0
-528 707 0
529 -528 -825 0
-529 528 0
-529 825 0
530 -905 -527 0
-530 905 0
-530 527 0
531 -734 -1 0
-531 734 0
-531 1 0
532 -531 -723 0
-532 531 0
-532 723 0
533 -906 -530 0
-533 906 0
-533 530 0
534 -45 -763 0
-534 45 0
-534 763 0
535 -534 -35 0
-535 534 0
-535 35 0
536 -907 -533 0
-536 907 0
-536 533 0
537 -765 -29 0
-537 765 0
-537 29 0
538 -537 -720 0
-538 537 0
-538 720 0
539 -908 -536 0
-539 908 0
-539 536 0
540 -819 -42 0
-540 819 0
-540 42 0
541 -540 -33 0
-541 540 0
-541 33 0
542 -909 -539 0
-542 909 0
-542 539 0
543 -819 -22 0
-543 819 0
-543 22 0
544 -543 -715 0
-544 543 0
-544 715 0
545 -910 -542 0
-545 910 0
-545 542 0
546 -30 -16 0
-546 30 0
-546 16 0
547 -546 -39 0
-547 546 0
-547 39 0
548 -911 -545 0
-548 911 0
-548 545 0
549 -832 -753 0
-549 832 0
-549 753 0
550 -549 -707 0
-550 549 0
-550 707 0
551 -912 -548 0
-551 912 0
-551 548 0
552 -35 -716 0
-552 35 0
-552 716 0
553 -552 -26 0
-553 552 0
-553 26 0
554 -913 -551 0
-554 913 0
-554 551 0
555 -7 -734 0
-555 7 0
-555 734 0
556 -555 -707 0
-556 555 0
-556 707 0
557 -914 -554 0
-557 914 0
-557 554 0
558 -801 -9 0
-558 801 0
-558 9 0
559 -558 -10 0
-559 558 0
-559 10 0
560 -915 -557 0
-560 915 0
-560 557 0
561 -49 -1 0
-561 49 0
-561 1 0
562 -561 -25 0
-562 561 0
-562 25 0
563 -916 -560 0
-563 916 0
-563 560 0
564 -41 -31 0
-564 41 0
-564 31 0
565 -564 -35 0
-565 564 0
-565 35 0
566 -917 -563 0
-566 917 0
-566 563 0
567 -744 -694 0
-567 744 0
-567 694 0
568 -567 -11 0
-568 567 0
-568 11 0
569 -918 -566 0
-569 918 0
-569 566 0
570 -763 -9 0
-570 763 0
-570 9 0
571 -570 -18 0
-571 570 0
-571 18 0
572 -919 -569 0
-572 919 0
-572 569 0
573 -817 -715 0
-573 817 0
-573 715 0
574 -573 -39 0
-574 573 0
-574 39 0
575 -920 -572 0
-575 920 0
-575 572 0
576 -31 -700 0
-576 31 0
-576 700 0
577 -576 -40 0
-577 576 0
-577 40 0
578 -921 -575 0
-578 921 0
-578 575 0
579 -761 -704 0
-579 761 0
-579 704 0
580 -579 -17 0
-580 579 0
-580 17 0
581 -922 -578 0
-581 922 0
-581 578 0
582 -363 -721 0
-582 363 0
-582 721 0
583 -923 -581 0
-583 923 0
-583 581 0
584 -31 -1 0
-584 31 0
-584 1 0
585 -584 -4 0
-585 584 0
-585 4 0
586 -924 -583 0
-586 924 0
-586 583 0
587 -50 -795 0
-587 50 0
-587 795 0
588 -587 -768 0
-588 587 0
-588 768 0
589 -925 -586 0
-589 925 0
-589 586 0
590 -38 -763 0
-590 38 0
-590 763 0
591 -590 -27 0
-591 590 0
-591 27 0
592 -926 -589 0
-592 926 0
-592 589 0
593 -46 -3 0
-593 46 0
-593 3 0
594 -593 -755 0
-594 593 0
-594 755 0
595 -927 -592 0
-595 927 0
-595 592 0
596 -738 -1 0
-596 738 0
-596 1 0
597 -596 -21 0
-597 596 0
-597 21 0
598 -928 -595 0
-598 928 0
-598 595 0
599 -795 -20 0
-599 795 0
-599 20 0
600 -599 -28 0
-600 599 0
-600 28 0
601 -929 -598 0
-601 929 0
-601 598 0
602 -810 -4 0
-602 810 0
-602 4 0
603 -602 -44 0
-603 602 0
-603 44 0
604 -930 -601 0
-604 930 0
-604 601 0
605 -40 -37 0
-605 40 0
-605 37 0
606 -605 -33 0
-606 605 0
-606 33 0
607 -931 -604 0
-607 931 0
-607 604 0
608 -44 -730 0
-608 44 0
-608 730 0
609 -608 -717 0
-609 608 0
-609 717 0
610 -932 -607 0
-610 932 0
-610 607 0
611 -43 -34 0
-611 43 0
-611 34 0
612 -611 -744 0
-612 611 0
-612 744 0
613 -933 -610 0
-613 933 0
-613 610 0
614 -30 -6 0
-614 30 0
-614 6 0
615 -614 -18 0
-615 614 0
-615 18 0
616 -934 -613 0
-616 934 0
-616 613 0
617 -26 -715 0
-617 26 0
-617 715 0
618 -617 -707 0
-618 617 0
-618 707 0
619 -935 -616 0
-619 935 0
-619 616 0
620 -801 -48 0
-620 801 0
-620 48 0
621 -620 -749 0
-621 620 0
-621 749 0
622 -936 -619 0
-622 936 0
-622 619 0
623 -44 -715 0
-623 44 0
-623 715 0
624 -623 -737 0
-624 623 0
-624 737 0
625 -937 -622 0
-625 937 0
-625 622 0
626 -505 -720 0
-626 505 0
-626 720 0
627 -938 -625 0
-627 938 0
-627 625 0
628 -29 -24 0
-628 29 0
-628 24 0
629 -628 -13 0
-629 628 0
-629 13 0
630 -939 -627 0
-630 939 0
-630 627 0
631 -50 -744 0
-631 50 0
-631 744 0
632 -631 -42 0
-632 631 0
-632 42 0
633 -940 -630 0
-633 940 0
-633 630 0
634 -702 -754 0
-634 702 0
-634 754 0
635 -634 -717 0
-635 634 0
-635 717 0
636 -941 -633 0
-636 941 0
-636 633 0
637 -790 -761 0
-637 790 0
-637 761 0
638 -637 -848 0
-638 637 0
-638 848 0
639 -942 -636 0
-639 942 0
-639 636 0
640 -48 -746 0
-640 48 0
-640 746 0
641 -640 -20 0
-641 640 0
-641 20 0
642 -943 -639 0
-642 943 0
-642 639 0
643 -342 -26 0
-643 342 0
-643 26 0
644 -944 -642 0
-644 944 0
-644 642 0
645 -716 -744 0
-645 716 0
-645 744 0
646 -645 -735 0
-646 645 0
-646 735 0
647 -945 -644 0
-647 945 0
-647 644 0
648 -774 -42 0
-648 774 0
-648 42 0
649 -648 -22 0
-649 648 0
-649 22 0
650 -946 -647 0
-650 946 0
-650 647 0
651 -46 -817 0
-651 46 0
-651 817 0
652 -651 -37 0
-652 651 0
-652 37 0
653 -947 -650 0
-653 947 0
-653 650 0
654 -29 -1 0
-654 29 0
-654 1 0
655 -654 -814 0
-655 654 0
-655 814 0
656 -948 -653 0
-656 948 0
-656 653 0
657 -784 -17 0
-657 784 0
-657 17 0
658 -657 -15 0
-658 657 0
-658 15 0
659 -949 -656 0
-659 949 0
-659 656 0
660 -817 -41 0
-660 817 0
-660 41 0
661 -660 -825 0
-661 660 0
-661 825 0
662 -950 -659 0
-662 950 0
-662 659 0
663 -817 -24 0
-663 817 0
-663 24 0
664 -663 -717 0
-664 663 0
-664 717 0
665 -951 -662 0
-665 951 0
-665 662 0
666 -593 -15 0
-666 593 0
-666 15 0
667 -952 -665 0
-667 952 0
-667 665 0
668 -47 -10 0
-668 47 0
-668 10 0
669 -668 -37 0
-669 668 0
-669 37 0
670 -953 -667 0
-670 953 0
-670 667 0
671 -832 -696 0
-671 832 0
-671 696 0
672 -671 -735 0
-672 671 0
-672 735 0
673 -954 -670 0
-673 954 0
-673 670 0
674 -46 -42 0
-674 46 0
-674 42 0
675 -674 -740 0
-675 674 0
-675 740 0
676 -955 -673 0
-676 955 0
-676 673 0
677 -868 -20 0
-677 868 0
-677 20 0
678 -677 -21 0
-678 677 0
-678 21 0
679 -956 -676 0
-679 956 0
-679 676 0
680 -774 -1 0
-680 774 0
-680 1 0
681 -680 -735 0
-681 680 0
-681 735 0
682 -957 -679 0
-682 957 0
-682 679 0
683 -774 -711 0
-683 774 0
-683 711 0
684 -683 -735 0
-684 683 0
-684 735 0
685 -958 -682 0
-685 958 0
-685 682 0
686 -50 -21 0
-686 50 0
-686 21 0
687 -686 -814 0
-687 686 0
-687 814 0
688 -959 -685 0
-688 959 0
-688 685 0
689 -53 -18 0
-689 53 0
-689 18 0
690 -960 -688 0
-690 960 0
-690 688 0
691 -30 -754 0
-691 30 0
-691 754 0
692 -691 -710 0
-692 691 0
-692 710 0
693 -961 -690 0
-693 961 0
-693 690 0
-694 -2 0
694 2 0
-695 -1 0
695 1 0
-696 -3 0
696 3 0
-697 -5 0
697 5 0
-698 -54 0
698 54 0
-699 -52 0
699 52 0
-700 -7 0
700 7 0
-701 -57 0
701 57 0
-702 -10 0
702 10 0
-703 -60 0
703 60 0
-704 -13 0
704 13 0
-705 -15 0
705 15 0
-706 -63 0
706 63 0
-707 -18 0
707 18 0
-708 -66 0
708 66 0
-709 -69 0
709 69 0
-710 -20 0
710 20 0
-711 -14 0
711 14 0
-712 -72 0
712 72 0
-713 -22 0
713 22 0
-714 -75 0
714 75 0
-715 -25 0
715 25 0
-716 -24 0
716 24 0
-717 -26 0
717 26 0
-718 -78 0
718 78 0
-719 -81 0
719 81 0
-720 -23 0
720 23 0
-721 -28 0
721 28 0
-722 -84 0
722 84 0
-723 -27 0
723 27 0
-724 -87 0
724 87 0
-725 -90 0
725 90 0
-726 -32 0
726 32 0
-727 -93 0
727 93 0
-728 -96 0
728 96 0
-729 -99 0
729 99 0
-730 -16 0
730 16 0
-731 -102 0
731 102 0
-732 -105 0
732 105 0
-733 -108 0
733 108 0
-734 -6 0
734 6 0
-735 -21 0
735 21 0
-736 -111 0
736 111 0
-737 -37 0
737 37 0
-738 -36 0
738 36 0
-739 -114 0
739 114 0
-740 -17 0
740 17 0
-741 -117 0
741 117 0
-742 -120 0
742 120 0
-743 -122 0
743 122 0
-744 -9 0
744 9 0
-745 -125 0
745 125 0
-746 -8 0
746 8 0
-747 -128 0
747 128 0
-748 -131 0
748 131 0
-749 -34 0
749 34 0
-750 -134 0
750 134 0
-751 -137 0
751 137 0
-752 -140 0
752 140 0
-753 -42 0
753 42 0
-754 -4 0
754 4 0
-755 -38 0
755 38 0
-756 -143 0
756 143 0
-757 -146 0
757 146 0
-758 -149 0
758 149 0
-759 -152 0
759 152 0
-760 -155 0
760 155 0
-761 -31 0
761 31 0
-762 -158 0
762 158 0
-763 -30 0
763 30 0
-764 -161 0
764 161 0
-765 -41 0
765 41 0
-766 -164 0
766 164 0
-767 -167 0
767 167 0
-768 -11 0
768 11 0
-769 -170 0
769 170 0
-770 -173 0
770 173 0
-771 -176 0
771 176 0
-772 -179 0
772 179 0
-773 -182 0
773 182 0
-774 -44 0
774 44 0
-775 -185 0
775 185 0
-776 -188 0
776 188 0
-777 -191 0
777 191 0
-778 -194 0
778 194 0
-779 -197 0
779 197 0
-780 -200 0
780 200 0
-781 -40 0
781 40 0
-782 -203 0
782 203 0
-783 -206 0
783 206 0
-784 -43 0
784 43 0
-785 -209 0
785 209 0
-786 -212 0
786 212 0
-787 -215 0
787 215 0
-788 -218 0
788 218 0
-789 -221 0
789 221 0
-790 -46 0
790 46 0
-791 -224 0
791 224 0
-792 -227 0
792 227 0
-793 -230 0
793 230 0
-794 -233 0
794 233 0
-795 -47 0
795 47 0
-796 -236 0
796 236 0
-797 -239 0
797 239 0
-798 -242 0
798 242 0
-799 -245 0
799 245 0
-800 -248 0
800 248 0
-801 -49 0
801 49 0
-802 -251 0
802 251 0
-803 -254 0
803 254 0
-804 -257 0
804 257 0
-805 -260 0
805 260 0
-806 -263 0
806 263 0
-807 -266 0
807 266 0
-808 -269 0
808 269 0
-809 -272 0
809 272 0
-810 -19 0
810 19 0
-811 -275 0
811 275 0
-812 -35 0
812 35 0
-813 -278 0
813 278 0
-814 -12 0
814 12 0
-815 -281 0
815 281 0
-816 -284 0
816 284 0
-817 -45 0
817 45 0
-818 -287 0
818 287 0
-819 -48 0
819 48 0
-820 -290 0
820 290 0
-821 -292 0
821 292 0
-822 -295 0
822 295 0
-823 -298 0
823 298 0
-824 -301 0
824 301 0
-825 -33 0
825 33 0
-826 -304 0
826 304 0
-827 -307 0
827 307 0
-828 -310 0
828 310 0
-829 -313 0
829 313 0
-830 -316 0
830 316 0
-831 -319 0
831 319 0
-832 -50 0
832 50 0
-833 -322 0
833 322 0
-834 -325 0
834 325 0
-835 -328 0
835 328 0
-836 -331 0
836 331 0
-837 -334 0
837 334 0
-838 -337 0
838 337 0
-839 -340 0
839 340 0
-840 -343 0
840 343 0
-841 -346 0
841 346 0
-842 -349 0
842 349 0
-843 -352 0
843 352 0
-844 -355 0
844 355 0
-845 -358 0
845 358 0
-846 -361 0
846 361 0
-847 -364 0
847 364 0
-848 -39 0
848 39 0
-849 -367 0
849 367 0
-850 -370 0
850 370 0
-851 -373 0
851 373 0
-852 -376 0
852 376 0
-853 -379 0
853 379 0
-854 -382 0
854 382 0
-855 -385 0
855 385 0
-856 -387 0
856 387 0
-857 -390 0
857 390 0
-858 -393 0
858 393 0
-859 -396 0
859 396 0
-860 -399 0
860 399 0
-861 -402 0
861 402 0
-862 -405 0
862 405 0
-863 -408 0
863 408 0
-864 -411 0
864 411 0
-865 -414 0
865 414 0
-866 -417 0
866 417 0
-867 -420 0
867 420 0
-868 -29 0
868 29 0
-869 -423 0
869 423 0
-870 -426 0
870 426 0
-871 -429 0
871 429 0
-872 -431 0
872 431 0
-873 -434 0
873 434 0
-874 -437 0
874 437 0
-875 -440 0
875 440 0
-876 -443 0
876 443 0
-877 -446 0
877 446 0
-878 -449 0
878 449 0
-879 -452 0
879 452 0
-880 -455 0
880 455 0
-881 -458 0
881 458 0
-882 -461 0
882 461 0
-883 -464 0
883 464 0
-884 -467 0
884 467 0
-885 -470 0
885 470 0
-886 -473 0
886 473 0
-887 -476 0
887 476 0
-888 -479 0
888 479 0
-889 -482 0
889 482 0
-890 -485 0
890 485 0
-891 -488 0
891 488 0
-892 -491 0
892 491 0
-893 -494 0
893 494 0
-894 -497 0
894 497 0
-895 -500 0
895 500 0
-896 -503 0
896 503 0
-897 -506 0
897 506 0
-898 -509 0
898 509 0
-899 -512 0
899 512 0
-900 -515 0
900 515 0
-901 -518 0
901 518 0
-902 -521 0
902 521 0
-903 -524 0
903 524 0
-904 -526 0
904 526 0
-905 -529 0
905 529 0
-906 -532 0
906 532 0
-907 -535 0
907 535 0
-908 -538 0
908 538 0
-909 -541 0
909 541 0
-910 -544 0
910 544 0
-911 -547 0
911 547 0
-912 -550 0
912 550 0
-913 -553 0
913 553 0
-914 -556 0
914 556 0
-915 -559 0
915 559 0
-916 -562 0
916 562 0
-917 -565 0
917 565 0
-918 -568 0
918 568 0
-919 -571 0
919 571 0
-920 -574 0
920 574 0
-921 -577 0
921 577 0
-922 -580 0
922 580 0
-923 -582 0
923 582 0
-924 -585 0
924 585 0
-925 -588 0
925 588 0
-926 -591 0
926 591 0
-927 -594 0
927 594 0
-928 -597 0
928 597 0
-929 -600 0
929 600 0
-930 -603 0
930 603 0
-931 -606 0
931 606 0
-932 -609 0
932 609 0
-933 -612 0
933 612 0
-934 -615 0
934 615 0
-935 -618 0
935 618 0
-936 -621 0
936 621 0
-937 -624 0
937 624 0
-938 -626 0
938 626 0
-939 -629 0
939 629 0
-940 -632 0
940 632 0
-941 -635 0
941 635 0
-942 -638 0
942 638 0
-943 -641 0
943 641 0
-944 -643 0
944 643 0
-945 -646 0
945 646 0
-946 -649 0
946 649 0
-947 -652 0
947 652 0
-948 -655 0
948 655 0
-949 -658 0
949 658 0
-950 -661 0
950 661 0
-951 -664 0
951 664 0
-952 -666 0
952 666 0
-953 -669 0
953 669 0
-954 -672 0
954 672 0
-955 -675 0
955 675 0
-956 -678 0
956 678 0
-957 -681 0
957 681 0
-958 -684 0
958 684 0
-959 -687 0
959 687 0
-960 -689 0
960 689 0
-961 -692 0
961 692 0
693 0
